3 100
0+3+33+7+9+6+2+1+17+21+39+41+43+45+47+68+55+60+61+53+51+49+26+28+67+66+65+57+99+72+76+80+82+74+70+78+96+88+84+86+93+94+91+90+95+92+87+85+89+97+79+71+75+83+81+77+73+98+58+50+25+27+40+42+44+46+48+69+56+59+62+54+52+38+30+36+11+15+31+22+23+64+63+10+20+4+24+8+5+13+32+12+19+37+29+35+14+34+16+18
72+96+78+70+74+82+80+76+88+84+86+93+94+91+90+95+92+87+85+89+97+79+71+75+83+81+77+73+98+58+50+25+27+40+42+44+52+54+62+59+56+69+48+46+38+30+36+15+11+31+22+23+64+63+10+20+4+24+8+5+13+32+12+19+37+29+35+14+34+16+18+0+3+33+7+9+6+2+1+17+21+39+41+43+45+47+68+55+60+61+53+51+49+26+28+67+66+65+57+99
72+96+78+70+74+82+80+76+88+84+86+93+94+91+90+95+92+87+85+89+97+79+71+75+83+81+77+73+98+58+50+25+27+40+42+44+52+54+62+59+56+69+48+46+38+30+36+15+11+31+22+23+64+63+10+20+4+24+8+5+13+32+12+19+37+29+35+14+34+16+18+0+3+33+7+9+6+2+1+17+21+39+41+43+45+47+68+55+60+61+53+51+49+26+28+67+66+65+57+99
